(set-logic ALL)
(declare-fun i1 () Int)
(declare-fun it889 () Int)
(declare-fun i2 () Int)
(declare-fun it890 () Int)
(declare-fun i3 () Int)
(declare-fun it891 () Int)
(declare-fun i4 () Int)
(declare-fun it892 () Int)
(declare-fun i5 () Int)
(declare-fun it893 () Int)
(declare-fun i6 () Int)
(declare-fun it894 () Int)
(declare-fun i7 () Int)
(declare-fun it895 () Int)
(declare-fun it903 () Int)
(declare-fun it904 () Int)
(declare-fun it905 () Int)
(declare-fun it906 () Int)
(declare-fun it907 () Int)
(declare-fun it908 () Int)
(declare-fun it909 () Int)
(declare-fun it1023 () Int)
(declare-fun it1024 () Int)
(declare-fun it1025 () Int)
(declare-fun it1026 () Int)
(declare-fun it1027 () Int)
(declare-fun it1028 () Int)
(declare-fun it1029 () Int)
(declare-fun it1030 () Int)
(declare-fun it1031 () Int)
(declare-fun it1032 () Int)
(declare-fun it1033 () Int)
(declare-fun it1034 () Int)
(declare-fun it1035 () Int)
(declare-fun it1036 () Int)
(declare-fun it1037 () Int)
(declare-fun it1038 () Int)
(declare-fun it1039 () Int)
(declare-fun it1040 () Int)
(declare-fun it1041 () Int)
(declare-fun it1042 () Int)
(declare-fun it1043 () Int)
(declare-fun it1044 () Int)
(declare-fun it1045 () Int)
(declare-fun it1046 () Int)
(declare-fun it1047 () Int)
(declare-fun it1048 () Int)
(declare-fun it1049 () Int)
(declare-fun it1050 () Int)
(declare-fun it1051 () Int)
(declare-fun it1052 () Int)
(declare-fun it1053 () Int)
(declare-fun it1054 () Int)
(declare-fun it1055 () Int)
(declare-fun it1056 () Int)
(declare-fun it1057 () Int)
(declare-fun it316 () Int)
(assert (= (+ i1 (- 1)) 0))
(assert (= (+ it889 (- 5)) 0))
(assert (= (+ it890 (* i2 (- 1)) (- 4)) 0))
(assert (= (+ it891 (* i3 (- 1))) 0))
(assert (= (+ it892 (* i4 (- 1))) 0))
(assert (= (+ it893 (* i5 (- 1))) 0))
(assert (= (+ it894 (* i6 (- 1))) 0))
(assert (= (+ it895 (* i7 (- 1))) 0))
(assert (and (> (+ it892 (- 2)) 0) (= (+ it889 (- 5)) 0)))
(assert (= (+ it903 (- 18)) 0))
(assert (= (+ (* it890 (- 1)) it904 (- 12)) 0))
(assert (= (+ (* it891 (- 1)) it905) 0))
(assert (= (+ it906 (* it892 (- 1))) 0))
(assert (= (+ (* it893 (- 1)) it907) 0))
(assert (= it908 0))
(assert (= (+ it909 (* it895 (- 1))) 0))
(assert (and (<= (+ (* it906 (- 1)) it908 2) 0) (= (+ it903 (- 18)) 0)))
(assert (= (+ it1023 (- 20)) 0))
(assert (= (+ it1024 (* it904 (- 1)) (- 2)) 0))
(assert (= (+ it1025 (* it905 (- 1))) 0))
(assert (= (+ (* it906 (- 1)) it1026) 0))
(assert (= it1027 0))
(assert (= (+ it1028 (* it908 (- 1))) 0))
(assert (= (+ (* it909 (- 1)) it1029) 0))
(assert (and (<= (+ (* it1027 2) it1028 (* it1026 (- 1)) 3) 0) (= (+ it1023 (- 20)) 0)))
(assert (= (+ it1030 (- 21)) 0))
(assert (= (+ (* it1024 (- 1)) it1031 (- 1)) 0))
(assert (= (+ (* it1025 (- 1)) it1032) 0))
(assert (= (+ it1033 (* it1026 (- 1))) 0))
(assert (= (+ (* it1027 (- 1)) it1034) 0))
(assert (= (+ (* it1028 (- 1)) it1035) 0))
(assert (= (+ it1036 (* it1029 (- 1))) 0))
(assert (and (< (+ (* it1033 (- 1)) (* it1034 2) it1035 3) 0) (= (+ it1030 (- 21)) 0)))
(assert (= (+ it1037 (- 24)) 0))
(assert (= (+ (* it1031 (- 1)) it1038 (- 1)) 0))
(assert (= (+ it1039 (* it1032 (- 1))) 0))
(assert (= (+ (* it1033 (- 1)) it1040) 0))
(assert (= (+ (* it1034 (- 1)) it1041) 0))
(assert (= (+ (* it1035 (- 1)) it1042) 0))
(assert (= (+ (* it1036 (- 1)) it1043) 0))
(assert (= (+ it1037 (- 24)) 0))
(assert (= (+ it1044 (- 26)) 0))
(assert (= (+ (* it1038 (- 1)) it1045 (- 2)) 0))
(assert (= (+ (* it1039 (- 1)) it1046) 0))
(assert (= (+ (* it1040 (- 1)) it1047) 0))
(assert (= (+ it1048 (* it1041 (- 1))) 0))
(assert (= (+ it1049 (* it1042 (- 1))) 0))
(assert (= (+ (* it1041 (- 2)) it1050 (- 2)) 0))
(assert (= (+ it1044 (- 26)) 0))
(assert (= (+ it1051 (- 20)) 0))
(assert (= (+ it1052 (* it1045 (- 1)) (- 1)) 0))
(assert (= (+ (* it1046 (- 1)) it1053) 0))
(assert (= (+ (* it1047 (- 1)) it1054) 0))
(assert (= (+ it1055 (* it1047 (- 1))) 0))
(assert (= (+ (* it1049 (- 1)) it1056) 0))
(assert (= (+ (* it1050 (- 1)) it1057) 0))
(assert (let ((a!1 (+ (+ 0 (* it1056 (- 1)))
              (* (exp 2 (+ it316 (- 1))) (+ 0 it1055) (+ 0 (- 2)))
              (* (exp 2 it316) (+ 0 (- 2)))
              (+ 0 it1054)
              (+ 0 1))))
  (and (>= (+ it1051 (- 20)) 0)
       (>= (+ it316 (- 1)) 0)
       (>= a!1 (+ 0 0))
       (> a!1 (+ 0 0))
       (>= (+ (* it1051 (- 1)) 20) 0)
       (> (+ (* it1055 (- 2)) (* it1056 (- 1)) it1054 (- 3)) 0)
       (>= (+ (* it1055 (- 2)) (* it1056 (- 1)) it1054 (- 3)) 0))))
(check-sat)
